data;
param n := 6;
param c : 1  2  3  4  5  6  :=
1 1000 33.6 14 40.9 14.5 11.5 
2 34.7 1000 21.7 13 20.2 23.4 
3 14.8 21.5 1000 29.3 2 3.9 
4 41.7 13.1 29.4 1000 27.6 30.3 
5 15 20.2 2.0 27.5 1000 3.9 
6 12 22.8 2 30.1 4 1000 ;


#000 33,6 14 40,9 14,5 11,5 
#34,7 000 21,7 13 20,2 23,4 
#14,8 21,5 000 29,3 2 3,9 
#41,7 13,1 29,4 000 27,6 30,3 
#15 20,2 2,0 27,5 000 3,9 
#12 22,8 2 30,1 4 000 
